DIMACS_lns/graph-1000-129.col
p edge 1000 1820
e 2 442
e 2 629
e 2 456
e 2 49
e 2 430
e 2 421
e 2 834
e 3 908
e 3 909
e 3 549
e 3 416
e 4 192
e 4 382
e 4 998
e 4 831
e 5 164
e 5 628
e 5 519
e 5 454
e 5 967
e 5 96
e 6 554
e 6 147
e 6 729
e 6 969
e 6 756
e 7 149
e 7 431
e 7 367
e 7 492
e 7 163
e 7 663
e 7 129
e 8 643
e 8 775
e 8 385
e 8 796
e 8 928
e 11 952
e 11 906
e 11 405
e 11 921
e 11 308
e 12 554
e 12 708
e 12 538
e 13 856
e 13 368
e 13 665
e 14 89
e 14 778
e 14 285
e 14 36
e 14 102
e 18 98
e 18 557
e 18 698
e 18 779
e 19 67
e 19 91
e 19 919
e 19 763
e 19 264
e 19 293
e 20 416
e 20 555
e 20 910
e 20 637
e 21 783
e 21 560
e 21 827
e 21 448
e 21 782
e 21 287
e 21 157
e 21 474
e 22 466
e 22 360
e 22 314
e 22 496
e 23 31
e 23 424
e 23 274
e 23 42
e 24 423
e 24 832
e 24 318
e 26 326
e 26 101
e 26 398
e 26 302
e 26 185
e 26 683
e 26 585
e 26 870
e 26 868
e 27 541
e 27 681
e 27 552
e 28 669
e 28 368
e 28 298
e 28 148
e 29 979
e 29 662
e 29 276
e 29 936
e 29 664
e 29 402
e 30 969
e 30 605
e 30 569
e 31 260
e 31 148
e 31 953
e 31 204
e 31 326
e 31 321
e 35 449
e 35 434
e 35 331
e 35 150
e 35 547
e 35 681
e 35 359
e 35 511
e 36 339
e 36 962
e 36 681
e 36 173
e 36 782
e 38 853
e 38 741
e 38 906
e 38 988
e 41 472
e 41 923
e 41 297
e 41 439
e 41 224
e 41 794
e 42 795
e 42 661
e 42 119
e 42 788
e 42 921
e 42 503
e 44 182
e 44 254
e 44 226
e 44 241
e 44 667
e 44 877
e 45 564
e 45 167
e 45 245
e 46 684
e 46 81
e 46 826
e 47 184
e 47 290
e 47 405
e 48 992
e 48 650
e 48 873
e 48 779
e 49 56
e 49 296
e 51 337
e 51 562
e 51 409
e 51 639
e 52 524
e 52 426
e 52 505
e 53 291
e 53 718
e 53 475
e 54 748
e 54 713
e 54 195
e 54 908
e 54 313
e 56 452
e 56 952
e 56 278
e 56 936
e 56 931
e 57 219
e 57 102
e 57 832
e 57 100
e 57 941
e 58 265
e 58 383
e 58 852
e 61 169
e 61 390
e 61 571
e 61 104
e 62 973
e 62 197
e 62 182
e 62 328
e 62 495
e 62 641
e 63 448
e 63 214
e 63 723
e 63 148
e 63 219
e 65 133
e 65 73
e 65 528
e 65 520
e 65 142
e 65 227
e 66 169
e 66 458
e 66 464
e 66 402
e 66 373
e 66 301
e 66 313
e 67 962
e 67 179
e 67 449
e 67 83
e 68 832
e 68 642
e 68 772
e 68 859
e 68 863
e 69 680
e 69 979
e 69 761
e 69 396
e 69 479
e 71 608
e 71 711
e 71 316
e 71 123
e 71 189
e 71 663
e 73 881
e 73 200
e 73 792
e 73 353
e 74 311
e 74 544
e 74 283
e 74 241
e 74 470
e 75 262
e 75 384
e 75 661
e 75 393
e 76 701
e 76 922
e 76 982
e 76 401
e 77 922
e 77 114
e 77 962
e 77 681
e 78 150
e 78 270
e 78 968
e 78 383
e 79 99
e 79 776
e 79 150
e 81 519
e 81 612
e 81 699
e 81 613
e 81 769
e 81 973
e 81 123
e 82 235
e 82 430
e 82 790
e 82 648
e 82 149
e 82 352
e 82 672
e 82 718
e 82 821
e 83 679
e 83 754
e 83 540
e 83 537
e 83 235
e 83 627
e 83 918
e 83 856
e 84 485
e 84 206
e 84 249
e 85 259
e 85 801
e 85 758
e 85 312
e 85 253
e 85 553
e 85 705
e 85 449
e 85 709
e 85 854
e 86 377
e 86 675
e 86 851
e 86 421
e 86 628
e 86 166
e 87 493
e 87 393
e 87 743
e 87 655
e 89 330
e 89 381
e 89 561
e 89 870
e 89 815
e 89 827
e 89 531
e 89 488
e 89 189
e 90 685
e 90 888
e 90 959
e 91 484
e 91 460
e 91 256
e 91 352
e 91 386
e 92 913
e 92 844
e 92 960
e 92 763
e 94 262
e 94 168
e 94 931
e 94 869
e 94 540
e 95 962
e 95 312
e 95 441
e 96 163
e 96 781
e 96 928
e 96 684
e 98 790
e 98 227
e 98 126
e 98 821
e 99 159
e 99 571
e 99 249
e 99 647
e 99 318
e 100 186
e 100 771
e 100 715
e 100 161
e 101 470
e 101 300
e 101 815
e 102 483
e 103 405
e 103 436
e 103 622
e 103 946
e 104 985
e 104 114
e 105 308
e 105 243
e 105 848
e 105 552
e 105 822
e 105 936
e 106 299
e 106 263
e 106 206
e 106 681
e 108 214
e 108 221
e 108 362
e 110 313
e 110 835
e 110 395
e 110 609
e 111 460
e 111 621
e 111 517
e 112 359
e 112 152
e 112 686
e 112 819
e 114 982
e 115 323
e 115 127
e 115 283
e 115 714
e 115 161
e 116 373
e 116 294
e 116 476
e 117 485
e 117 977
e 117 476
e 117 622
e 117 962
e 118 411
e 118 530
e 118 463
e 118 845
e 119 767
e 119 500
e 119 446
e 119 686
e 119 157
e 119 505
e 119 667
e 120 509
e 120 781
e 120 202
e 120 609
e 122 875
e 122 548
e 122 373
e 122 159
e 123 249
e 123 873
e 123 431
e 124 621
e 124 386
e 124 128
e 124 665
e 124 141
e 124 451
e 124 913
e 124 781
e 125 613
e 125 612
e 125 869
e 126 328
e 126 197
e 126 436
e 126 870
e 126 222
e 127 719
e 127 692
e 128 239
e 128 371
e 128 629
e 128 878
e 129 318
e 129 192
e 129 867
e 129 272
e 130 698
e 130 856
e 130 978
e 131 209
e 131 166
e 131 943
e 133 140
e 133 399
e 134 276
e 134 411
e 134 724
e 136 358
e 136 550
e 136 809
e 137 168
e 137 894
e 137 815
e 138 489
e 138 822
e 138 623
e 139 984
e 139 216
e 139 434
e 139 838
e 140 274
e 140 812
e 140 929
e 140 241
e 140 912
e 141 702
e 141 219
e 141 669
e 141 962
e 141 581
e 141 359
e 141 630
e 141 819
e 142 330
e 142 297
e 142 872
e 143 726
e 143 478
e 143 434
e 143 772
e 145 300
e 145 308
e 145 926
e 146 514
e 146 332
e 146 989
e 146 597
e 147 189
e 147 990
e 148 928
e 149 488
e 149 290
e 149 448
e 149 476
e 149 208
e 150 371
e 151 793
e 151 256
e 151 918
e 151 905
e 151 474
e 151 825
e 151 811
e 152 750
e 152 564
e 152 341
e 152 613
e 152 771
e 152 428
e 153 824
e 153 937
e 153 396
e 153 941
e 153 789
e 153 362
e 154 271
e 154 678
e 154 748
e 155 446
e 155 263
e 155 359
e 155 803
e 155 996
e 156 352
e 156 938
e 156 414
e 156 942
e 157 896
e 157 785
e 159 298
e 159 164
e 159 402
e 159 947
e 161 338
e 161 502
e 161 975
e 163 759
e 163 457
e 163 808
e 164 524
e 164 801
e 166 575
e 166 208
e 166 880
e 166 537
e 167 453
e 167 880
e 168 932
e 168 450
e 168 186
e 168 639
e 168 591
e 168 201
e 168 514
e 169 214
e 169 848
e 169 449
e 170 581
e 170 443
e 170 723
e 170 352
e 173 460
e 173 877
e 174 931
e 174 854
e 174 531
e 175 882
e 175 775
e 175 638
e 176 431
e 176 803
e 176 796
e 176 793
e 177 686
e 177 695
e 177 848
e 178 433
e 178 393
e 178 525
e 179 582
e 179 393
e 179 468
e 179 310
e 179 265
e 180 695
e 180 885
e 180 466
e 180 561
e 182 313
e 182 648
e 182 318
e 182 441
e 183 752
e 183 390
e 183 451
e 183 293
e 184 217
e 184 239
e 185 492
e 185 455
e 186 393
e 186 441
e 186 617
e 186 826
e 186 716
e 189 623
e 189 264
e 189 502
e 191 978
e 191 766
e 191 351
e 191 270
e 191 468
e 192 731
e 192 544
e 193 314
e 193 673
e 193 919
e 195 271
e 195 563
e 196 815
e 196 318
e 196 385
e 196 230
e 197 972
e 198 634
e 198 698
e 198 301
e 200 974
e 200 491
e 200 684
e 201 636
e 201 803
e 201 371
e 201 314
e 202 738
e 202 418
e 202 709
e 202 421
e 202 334
e 202 762
e 204 873
e 204 673
e 205 524
e 205 555
e 205 242
e 206 360
e 206 500
e 206 849
e 207 699
e 207 708
e 207 880
e 207 731
e 208 406
e 208 791
e 208 339
e 209 465
e 209 263
e 212 385
e 212 531
e 212 468
e 212 951
e 212 451
e 213 406
e 213 455
e 213 474
e 214 782
e 214 644
e 215 337
e 215 905
e 215 495
e 215 537
e 215 563
e 215 896
e 215 264
e 216 520
e 216 392
e 216 987
e 217 827
e 217 286
e 217 493
e 217 643
e 218 617
e 218 503
e 218 805
e 218 767
e 218 253
e 219 459
e 219 330
e 219 241
e 221 227
e 221 282
e 221 539
e 221 495
e 221 819
e 221 286
e 222 705
e 222 908
e 222 614
e 222 539
e 222 309
e 224 375
e 224 827
e 226 856
e 226 456
e 226 678
e 226 539
e 227 908
e 227 613
e 227 621
e 227 770
e 227 865
e 230 769
e 230 492
e 230 968
e 230 434
e 231 918
e 231 857
e 231 881
e 232 553
e 232 926
e 232 582
e 233 512
e 233 411
e 233 293
e 233 570
e 233 706
e 235 562
e 237 750
e 237 529
e 237 897
e 238 328
e 238 315
e 238 859
e 238 277
e 238 537
e 239 646
e 239 681
e 239 401
e 239 811
e 239 908
e 239 316
e 240 868
e 240 713
e 240 246
e 240 750
e 240 885
e 240 426
e 240 258
e 241 390
e 241 478
e 241 835
e 241 820
e 242 732
e 242 476
e 242 339
e 242 799
e 242 941
e 242 874
e 243 654
e 243 620
e 243 418
e 244 741
e 244 511
e 244 343
e 244 967
e 244 275
e 245 908
e 245 296
e 245 754
e 245 987
e 245 255
e 246 910
e 246 863
e 246 766
e 246 481
e 246 799
e 249 946
e 249 406
e 249 605
e 251 320
e 251 585
e 251 777
e 251 331
e 251 442
e 251 732
e 251 657
e 252 458
e 252 331
e 252 820
e 253 894
e 253 328
e 253 271
e 254 695
e 254 967
e 254 535
e 255 641
e 255 295
e 255 636
e 255 905
e 255 722
e 256 917
e 258 598
e 258 263
e 258 948
e 259 699
e 259 791
e 260 437
e 260 264
e 260 796
e 261 628
e 261 431
e 261 496
e 262 772
e 262 673
e 262 540
e 263 323
e 263 423
e 263 601
e 263 765
e 263 821
e 264 878
e 264 376
e 264 912
e 264 762
e 265 716
e 265 943
e 265 577
e 265 391
e 268 995
e 268 795
e 268 762
e 268 927
e 269 667
e 269 489
e 269 683
e 270 617
e 270 394
e 270 789
e 271 775
e 271 548
e 271 766
e 271 750
e 271 346
e 271 311
e 272 863
e 272 929
e 272 535
e 274 944
e 275 435
e 275 647
e 275 552
e 275 404
e 276 649
e 277 569
e 277 607
e 277 517
e 278 282
e 278 769
e 278 745
e 278 728
e 278 574
e 279 430
e 279 773
e 279 357
e 281 687
e 281 892
e 281 752
e 281 558
e 281 537
e 282 608
e 282 491
e 282 847
e 282 619
e 282 638
e 283 726
e 283 592
e 283 698
e 283 426
e 285 953
e 285 608
e 286 956
e 286 953
e 286 812
e 287 857
e 287 629
e 287 675
e 287 431
e 287 882
e 287 399
e 290 935
e 290 403
e 290 765
e 291 731
e 291 453
e 291 767
e 291 491
e 292 719
e 292 826
e 292 706
e 293 865
e 294 965
e 294 850
e 294 917
e 294 375
e 294 696
e 294 406
e 295 758
e 295 655
e 295 775
e 295 334
e 295 784
e 296 755
e 296 752
e 296 945
e 296 378
e 297 628
e 297 314
e 297 641
e 297 302
e 298 518
e 298 448
e 298 408
e 298 996
e 298 585
e 299 544
e 299 800
e 299 497
e 300 956
e 300 753
e 301 313
e 301 803
e 302 502
e 302 718
e 302 432
e 302 944
e 303 322
e 303 669
e 303 712
e 304 674
e 304 340
e 304 492
e 304 769
e 305 938
e 305 606
e 305 476
e 307 980
e 307 478
e 307 829
e 308 323
e 308 709
e 309 812
e 309 496
e 309 605
e 309 728
e 310 392
e 310 954
e 310 449
e 310 922
e 311 451
e 311 941
e 312 314
e 312 901
e 312 796
e 312 632
e 312 443
e 312 366
e 313 975
e 313 572
e 313 644
e 313 880
e 314 606
e 314 704
e 314 985
e 314 789
e 314 483
e 314 874
e 315 711
e 315 777
e 316 419
e 316 837
e 316 844
e 316 951
e 316 956
e 316 981
e 316 627
e 318 760
e 318 819
e 318 458
e 318 856
e 320 722
e 320 990
e 320 796
e 320 344
e 320 646
e 320 864
e 320 781
e 321 872
e 321 447
e 321 738
e 322 922
e 322 457
e 322 822
e 322 748
e 323 471
e 323 838
e 323 415
e 325 471
e 325 465
e 325 608
e 325 851
e 326 731
e 326 986
e 326 910
e 326 679
e 326 509
e 328 572
e 328 446
e 330 563
e 330 977
e 331 647
e 331 592
e 331 914
e 332 808
e 332 761
e 332 443
e 334 409
e 334 648
e 336 545
e 336 621
e 336 786
e 336 915
e 337 934
e 337 673
e 338 375
e 338 613
e 339 853
e 339 755
e 339 789
e 339 945
e 339 630
e 340 664
e 340 548
e 340 941
e 340 400
e 340 935
e 341 722
e 341 734
e 341 489
e 341 657
e 341 619
e 341 872
e 343 600
e 343 456
e 343 497
e 344 549
e 344 623
e 344 598
e 346 715
e 346 847
e 348 857
e 348 575
e 348 669
e 350 527
e 350 948
e 350 503
e 350 979
e 351 996
e 351 496
e 352 844
e 353 682
e 353 766
e 353 696
e 354 405
e 354 724
e 354 795
e 354 758
e 354 711
e 357 977
e 357 503
e 357 935
e 358 591
e 358 518
e 358 433
e 359 538
e 359 488
e 360 392
e 360 630
e 360 871
e 362 783
e 362 679
e 365 827
e 365 442
e 365 510
e 366 622
e 366 734
e 367 753
e 367 390
e 368 981
e 368 384
e 369 456
e 369 906
e 369 454
e 369 811
e 371 754
e 371 590
e 372 399
e 372 906
e 372 877
e 372 423
e 372 474
e 372 874
e 373 850
e 373 513
e 373 836
e 373 527
e 375 901
e 375 741
e 375 520
e 375 959
e 376 860
e 376 850
e 377 500
e 377 852
e 377 539
e 378 995
e 378 436
e 381 698
e 381 662
e 382 581
e 382 698
e 382 669
e 382 465
e 382 771
e 382 1000
e 383 664
e 383 432
e 384 801
e 385 756
e 385 775
e 386 951
e 386 417
e 386 558
e 389 446
e 389 885
e 389 641
e 389 572
e 391 967
e 391 723
e 392 973
e 392 544
e 392 446
e 393 972
e 393 552
e 393 447
e 393 800
e 393 497
e 394 879
e 394 710
e 395 791
e 395 910
e 396 986
e 396 473
e 397 840
e 397 989
e 397 724
e 397 519
e 398 710
e 398 597
e 398 842
e 398 764
e 398 514
e 398 558
e 399 470
e 399 913
e 400 987
e 400 933
e 401 440
e 401 410
e 401 739
e 402 478
e 403 850
e 403 682
e 403 795
e 403 514
e 404 673
e 404 622
e 405 732
e 405 626
e 405 575
e 406 840
e 407 492
e 407 745
e 407 576
e 407 430
e 408 557
e 408 565
e 408 1000
e 408 420
e 408 887
e 408 632
e 409 721
e 409 909
e 410 525
e 410 552
e 411 831
e 411 795
e 411 661
e 414 790
e 414 581
e 414 554
e 414 460
e 415 608
e 415 495
e 415 800
e 415 555
e 416 672
e 416 870
e 416 933
e 416 801
e 417 766
e 417 574
e 417 527
e 417 739
e 418 450
e 418 491
e 418 863
e 419 443
e 419 856
e 420 594
e 420 705
e 421 475
e 422 719
e 422 875
e 422 837
e 423 687
e 424 826
e 424 860
e 428 731
e 428 434
e 428 578
e 430 472
e 430 583
e 430 500
e 430 949
e 431 583
e 431 514
e 432 570
e 433 675
e 433 926
e 433 542
e 434 546
e 435 864
e 435 760
e 435 723
e 436 603
e 437 945
e 437 549
e 437 913
e 437 759
e 437 996
e 439 959
e 439 938
e 439 878
e 440 633
e 440 758
e 441 753
e 441 815
e 441 830
e 441 713
e 442 562
e 442 606
e 442 589
e 442 969
e 442 782
e 447 777
e 447 519
e 447 722
e 447 950
e 448 974
e 448 954
e 449 585
e 449 755
e 449 678
e 450 724
e 450 927
e 451 758
e 451 592
e 452 576
e 452 531
e 453 931
e 453 779
e 453 589
e 453 639
e 454 948
e 455 497
e 455 940
e 455 655
e 456 799
e 456 683
e 456 607
e 457 729
e 457 761
e 459 928
e 459 529
e 459 642
e 462 843
e 462 801
e 462 987
e 463 646
e 463 760
e 464 831
e 464 869
e 464 650
e 464 961
e 465 695
e 465 478
e 466 492
e 466 655
e 466 881
e 468 546
e 468 770
e 468 810
e 468 648
e 470 972
e 471 794
e 471 519
e 472 886
e 472 953
e 473 794
e 473 554
e 473 629
e 473 734
e 475 672
e 475 785
e 475 989
e 476 800
e 476 507
e 476 981
e 478 626
e 478 932
e 478 988
e 479 720
e 479 644
e 479 681
e 481 632
e 481 941
e 481 529
e 483 937
e 483 734
e 484 611
e 484 989
e 484 767
e 485 871
e 488 865
e 488 654
e 489 905
e 489 644
e 489 557
e 489 845
e 490 789
e 490 731
e 490 577
e 491 767
e 491 836
e 491 901
e 492 577
e 492 664
e 492 909
e 493 702
e 493 601
e 493 606
e 495 664
e 496 867
e 497 636
e 497 568
e 497 638
e 497 546
e 500 686
e 500 732
e 502 620
e 502 885
e 505 908
e 505 942
e 505 729
e 507 545
e 507 872
e 507 674
e 507 583
e 507 970
e 509 575
e 510 999
e 510 619
e 511 999
e 512 782
e 512 932
e 512 943
e 512 922
e 513 936
e 513 549
e 513 605
e 514 954
e 517 947
e 517 621
e 517 1000
e 518 594
e 518 716
e 519 784
e 519 716
e 520 569
e 524 633
e 524 720
e 524 892
e 524 590
e 524 711
e 524 875
e 525 538
e 525 812
e 525 805
e 527 949
e 527 848
e 527 684
e 528 571
e 528 562
e 528 756
e 529 995
e 529 974
e 530 960
e 530 547
e 531 577
e 531 541
e 531 870
e 531 978
e 531 990
e 535 770
e 535 555
e 537 886
e 537 921
e 537 830
e 537 819
e 537 649
e 538 622
e 540 721
e 540 552
e 541 879
e 542 699
e 542 654
e 544 979
e 544 710
e 544 777
e 544 835
e 544 562
e 545 633
e 546 714
e 546 952
e 546 980
e 547 661
e 547 620
e 548 591
e 550 674
e 550 834
e 550 982
e 550 939
e 552 623
e 553 721
e 557 882
e 558 702
e 560 636
e 560 830
e 561 576
e 562 863
e 564 794
e 564 923
e 565 868
e 565 972
e 565 786
e 565 710
e 568 809
e 568 663
e 568 719
e 569 843
e 569 867
e 570 724
e 571 591
e 571 871
e 572 859
e 572 803
e 574 731
e 574 926
e 574 680
e 574 906
e 575 965
e 575 939
e 576 720
e 576 811
e 577 893
e 577 832
e 578 713
e 578 763
e 578 937
e 581 685
e 581 890
e 581 608
e 582 990
e 582 908
e 583 854
e 583 999
e 585 865
e 585 873
e 585 871
e 588 641
e 588 745
e 588 862
e 588 805
e 589 842
e 589 788
e 590 985
e 590 702
e 590 704
e 590 917
e 594 952
e 597 946
e 597 642
e 598 914
e 598 714
e 598 698
e 598 848
e 600 894
e 600 694
e 601 701
e 603 928
e 603 812
e 603 755
e 603 965
e 605 907
e 606 995
e 606 722
e 607 965
e 608 907
e 608 770
e 609 941
e 611 721
e 611 897
e 612 893
e 612 909
e 612 934
e 613 911
e 614 627
e 614 928
e 614 784
e 617 977
e 617 710
e 617 978
e 619 954
e 619 845
e 619 637
e 620 741
e 620 738
e 620 840
e 622 712
e 626 791
e 627 648
e 627 890
e 628 901
e 628 937
e 629 781
e 632 837
e 632 844
e 632 928
e 633 682
e 633 748
e 634 921
e 634 848
e 636 970
e 637 838
e 638 989
e 638 701
e 641 672
e 642 978
e 643 794
e 649 896
e 649 970
e 650 1000
e 654 796
e 655 673
e 657 909
e 657 867
e 662 844
e 662 897
e 662 681
e 662 842
e 662 759
e 662 915
e 662 846
e 664 851
e 665 679
e 672 692
e 672 698
e 673 887
e 673 743
e 674 792
e 675 754
e 675 834
e 675 805
e 675 939
e 675 907
e 680 949
e 681 880
e 681 821
e 681 977
e 682 761
e 683 923
e 683 715
e 685 844
e 685 860
e 686 723
e 686 734
e 686 870
e 687 989
e 687 696
e 692 845
e 692 959
e 694 894
e 694 846
e 694 749
e 696 906
e 699 784
e 701 912
e 701 810
e 702 832
e 704 874
e 705 825
e 706 806
e 708 857
e 709 801
e 710 987
e 711 905
e 712 860
e 714 984
e 718 940
e 718 911
e 720 868
e 720 723
e 721 911
e 721 840
e 722 931
e 723 827
e 724 911
e 724 849
e 725 933
e 725 773
e 725 872
e 726 832
e 726 952
e 728 998
e 728 851
e 731 778
e 732 848
e 732 918
e 738 949
e 739 764
e 739 868
e 741 989
e 743 825
e 745 995
e 749 850
e 749 912
e 750 842
e 752 915
e 753 852
e 758 961
e 758 810
e 759 896
e 759 863
e 761 785
e 762 980
e 763 961
e 764 810
e 764 799
e 764 879
e 765 931
e 765 802
e 772 793
e 772 812
e 773 986
e 773 794
e 776 965
e 776 939
e 776 783
e 777 950
e 777 995
e 777 786
e 778 864
e 779 890
e 781 960
e 781 862
e 781 933
e 781 803
e 782 973
e 783 786
e 783 947
e 785 802
e 788 820
e 790 893
e 791 992
e 791 801
e 792 959
e 793 845
e 794 848
e 795 998
e 799 873
e 801 947
e 801 919
e 802 934
e 803 811
e 803 844
e 805 893
e 806 815
e 806 808
e 808 838
e 808 940
e 809 829
e 809 892
e 809 859
e 812 824
e 812 979
e 815 917
e 815 910
e 819 829
e 821 959
e 821 973
e 824 847
e 825 985
e 832 932
e 832 843
e 834 951
e 834 932
e 836 989
e 837 961
e 840 928
e 840 995
e 842 914
e 842 873
e 843 986
e 846 901
e 846 929
e 847 907
e 848 859
e 848 938
e 849 915
e 852 871
e 853 939
e 853 975
e 854 869
e 856 956
e 857 867
e 857 1000
e 860 888
e 860 927
e 862 985
e 865 926
e 867 989
e 870 918
e 872 965
e 872 944
e 877 901
e 878 886
e 878 948
e 885 967
e 887 972
e 888 937
e 892 979
e 893 913
e 897 950
e 897 921
e 906 970
e 906 911
e 919 969
e 923 968
e 928 953
e 932 978
e 932 981
e 936 942
e 950 970
e 952 981
e 954 969
e 960 988
e 972 973
e 973 984
e 974 992
e 975 982
e 975 998
e 978 992
e 985 998
e 989 992
