txt_Ins/graph-1000-129.txt
n 1000
e 1 441
e 1 628
e 1 455
e 1 48
e 1 429
e 1 420
e 1 833
e 2 907
e 2 908
e 2 548
e 2 415
e 3 191
e 3 381
e 3 997
e 3 830
e 4 163
e 4 627
e 4 518
e 4 453
e 4 966
e 4 95
e 5 553
e 5 146
e 5 728
e 5 968
e 5 755
e 6 148
e 6 430
e 6 366
e 6 491
e 6 162
e 6 662
e 6 128
e 7 642
e 7 774
e 7 384
e 7 795
e 7 927
e 10 951
e 10 905
e 10 404
e 10 920
e 10 307
e 11 553
e 11 707
e 11 537
e 12 855
e 12 367
e 12 664
e 13 88
e 13 777
e 13 284
e 13 35
e 13 101
e 17 97
e 17 556
e 17 697
e 17 778
e 18 66
e 18 90
e 18 918
e 18 762
e 18 263
e 18 292
e 19 415
e 19 554
e 19 909
e 19 636
e 20 782
e 20 559
e 20 826
e 20 447
e 20 781
e 20 286
e 20 156
e 20 473
e 21 465
e 21 359
e 21 313
e 21 495
e 22 30
e 22 423
e 22 273
e 22 41
e 23 422
e 23 831
e 23 317
e 25 325
e 25 100
e 25 397
e 25 301
e 25 184
e 25 682
e 25 584
e 25 869
e 25 867
e 26 540
e 26 680
e 26 551
e 27 668
e 27 367
e 27 297
e 27 147
e 28 978
e 28 661
e 28 275
e 28 935
e 28 663
e 28 401
e 29 968
e 29 604
e 29 568
e 30 259
e 30 147
e 30 952
e 30 203
e 30 325
e 30 320
e 34 448
e 34 433
e 34 330
e 34 149
e 34 546
e 34 680
e 34 358
e 34 510
e 35 338
e 35 961
e 35 680
e 35 172
e 35 781
e 37 852
e 37 740
e 37 905
e 37 987
e 40 471
e 40 922
e 40 296
e 40 438
e 40 223
e 40 793
e 41 794
e 41 660
e 41 118
e 41 787
e 41 920
e 41 502
e 43 181
e 43 253
e 43 225
e 43 240
e 43 666
e 43 876
e 44 563
e 44 166
e 44 244
e 45 683
e 45 80
e 45 825
e 46 183
e 46 289
e 46 404
e 47 991
e 47 649
e 47 872
e 47 778
e 48 55
e 48 295
e 50 336
e 50 561
e 50 408
e 50 638
e 51 523
e 51 425
e 51 504
e 52 290
e 52 717
e 52 474
e 53 747
e 53 712
e 53 194
e 53 907
e 53 312
e 55 451
e 55 951
e 55 277
e 55 935
e 55 930
e 56 218
e 56 101
e 56 831
e 56 99
e 56 940
e 57 264
e 57 382
e 57 851
e 60 168
e 60 389
e 60 570
e 60 103
e 61 972
e 61 196
e 61 181
e 61 327
e 61 494
e 61 640
e 62 447
e 62 213
e 62 722
e 62 147
e 62 218
e 64 132
e 64 72
e 64 527
e 64 519
e 64 141
e 64 226
e 65 168
e 65 457
e 65 463
e 65 401
e 65 372
e 65 300
e 65 312
e 66 961
e 66 178
e 66 448
e 66 82
e 67 831
e 67 641
e 67 771
e 67 858
e 67 862
e 68 679
e 68 978
e 68 760
e 68 395
e 68 478
e 70 607
e 70 710
e 70 315
e 70 122
e 70 188
e 70 662
e 72 880
e 72 199
e 72 791
e 72 352
e 73 310
e 73 543
e 73 282
e 73 240
e 73 469
e 74 261
e 74 383
e 74 660
e 74 392
e 75 700
e 75 921
e 75 981
e 75 400
e 76 921
e 76 113
e 76 961
e 76 680
e 77 149
e 77 269
e 77 967
e 77 382
e 78 98
e 78 775
e 78 149
e 80 518
e 80 611
e 80 698
e 80 612
e 80 768
e 80 972
e 80 122
e 81 234
e 81 429
e 81 789
e 81 647
e 81 148
e 81 351
e 81 671
e 81 717
e 81 820
e 82 678
e 82 753
e 82 539
e 82 536
e 82 234
e 82 626
e 82 917
e 82 855
e 83 484
e 83 205
e 83 248
e 84 258
e 84 800
e 84 757
e 84 311
e 84 252
e 84 552
e 84 704
e 84 448
e 84 708
e 84 853
e 85 376
e 85 674
e 85 850
e 85 420
e 85 627
e 85 165
e 86 492
e 86 392
e 86 742
e 86 654
e 88 329
e 88 380
e 88 560
e 88 869
e 88 814
e 88 826
e 88 530
e 88 487
e 88 188
e 89 684
e 89 887
e 89 958
e 90 483
e 90 459
e 90 255
e 90 351
e 90 385
e 91 912
e 91 843
e 91 959
e 91 762
e 93 261
e 93 167
e 93 930
e 93 868
e 93 539
e 94 961
e 94 311
e 94 440
e 95 162
e 95 780
e 95 927
e 95 683
e 97 789
e 97 226
e 97 125
e 97 820
e 98 158
e 98 570
e 98 248
e 98 646
e 98 317
e 99 185
e 99 770
e 99 714
e 99 160
e 100 469
e 100 299
e 100 814
e 101 482
e 102 404
e 102 435
e 102 621
e 102 945
e 103 984
e 103 113
e 104 307
e 104 242
e 104 847
e 104 551
e 104 821
e 104 935
e 105 298
e 105 262
e 105 205
e 105 680
e 107 213
e 107 220
e 107 361
e 109 312
e 109 834
e 109 394
e 109 608
e 110 459
e 110 620
e 110 516
e 111 358
e 111 151
e 111 685
e 111 818
e 113 981
e 114 322
e 114 126
e 114 282
e 114 713
e 114 160
e 115 372
e 115 293
e 115 475
e 116 484
e 116 976
e 116 475
e 116 621
e 116 961
e 117 410
e 117 529
e 117 462
e 117 844
e 118 766
e 118 499
e 118 445
e 118 685
e 118 156
e 118 504
e 118 666
e 119 508
e 119 780
e 119 201
e 119 608
e 121 874
e 121 547
e 121 372
e 121 158
e 122 248
e 122 872
e 122 430
e 123 620
e 123 385
e 123 127
e 123 664
e 123 140
e 123 450
e 123 912
e 123 780
e 124 612
e 124 611
e 124 868
e 125 327
e 125 196
e 125 435
e 125 869
e 125 221
e 126 718
e 126 691
e 127 238
e 127 370
e 127 628
e 127 877
e 128 317
e 128 191
e 128 866
e 128 271
e 129 697
e 129 855
e 129 977
e 130 208
e 130 165
e 130 942
e 132 139
e 132 398
e 133 275
e 133 410
e 133 723
e 135 357
e 135 549
e 135 808
e 136 167
e 136 893
e 136 814
e 137 488
e 137 821
e 137 622
e 138 983
e 138 215
e 138 433
e 138 837
e 139 273
e 139 811
e 139 928
e 139 240
e 139 911
e 140 701
e 140 218
e 140 668
e 140 961
e 140 580
e 140 358
e 140 629
e 140 818
e 141 329
e 141 296
e 141 871
e 142 725
e 142 477
e 142 433
e 142 771
e 144 299
e 144 307
e 144 925
e 145 513
e 145 331
e 145 988
e 145 596
e 146 188
e 146 989
e 147 927
e 148 487
e 148 289
e 148 447
e 148 475
e 148 207
e 149 370
e 150 792
e 150 255
e 150 917
e 150 904
e 150 473
e 150 824
e 150 810
e 151 749
e 151 563
e 151 340
e 151 612
e 151 770
e 151 427
e 152 823
e 152 936
e 152 395
e 152 940
e 152 788
e 152 361
e 153 270
e 153 677
e 153 747
e 154 445
e 154 262
e 154 358
e 154 802
e 154 995
e 155 351
e 155 937
e 155 413
e 155 941
e 156 895
e 156 784
e 158 297
e 158 163
e 158 401
e 158 946
e 160 337
e 160 501
e 160 974
e 162 758
e 162 456
e 162 807
e 163 523
e 163 800
e 165 574
e 165 207
e 165 879
e 165 536
e 166 452
e 166 879
e 167 931
e 167 449
e 167 185
e 167 638
e 167 590
e 167 200
e 167 513
e 168 213
e 168 847
e 168 448
e 169 580
e 169 442
e 169 722
e 169 351
e 172 459
e 172 876
e 173 930
e 173 853
e 173 530
e 174 881
e 174 774
e 174 637
e 175 430
e 175 802
e 175 795
e 175 792
e 176 685
e 176 694
e 176 847
e 177 432
e 177 392
e 177 524
e 178 581
e 178 392
e 178 467
e 178 309
e 178 264
e 179 694
e 179 884
e 179 465
e 179 560
e 181 312
e 181 647
e 181 317
e 181 440
e 182 751
e 182 389
e 182 450
e 182 292
e 183 216
e 183 238
e 184 491
e 184 454
e 185 392
e 185 440
e 185 616
e 185 825
e 185 715
e 188 622
e 188 263
e 188 501
e 190 977
e 190 765
e 190 350
e 190 269
e 190 467
e 191 730
e 191 543
e 192 313
e 192 672
e 192 918
e 194 270
e 194 562
e 195 814
e 195 317
e 195 384
e 195 229
e 196 971
e 197 633
e 197 697
e 197 300
e 199 973
e 199 490
e 199 683
e 200 635
e 200 802
e 200 370
e 200 313
e 201 737
e 201 417
e 201 708
e 201 420
e 201 333
e 201 761
e 203 872
e 203 672
e 204 523
e 204 554
e 204 241
e 205 359
e 205 499
e 205 848
e 206 698
e 206 707
e 206 879
e 206 730
e 207 405
e 207 790
e 207 338
e 208 464
e 208 262
e 211 384
e 211 530
e 211 467
e 211 950
e 211 450
e 212 405
e 212 454
e 212 473
e 213 781
e 213 643
e 214 336
e 214 904
e 214 494
e 214 536
e 214 562
e 214 895
e 214 263
e 215 519
e 215 391
e 215 986
e 216 826
e 216 285
e 216 492
e 216 642
e 217 616
e 217 502
e 217 804
e 217 766
e 217 252
e 218 458
e 218 329
e 218 240
e 220 226
e 220 281
e 220 538
e 220 494
e 220 818
e 220 285
e 221 704
e 221 907
e 221 613
e 221 538
e 221 308
e 223 374
e 223 826
e 225 855
e 225 455
e 225 677
e 225 538
e 226 907
e 226 612
e 226 620
e 226 769
e 226 864
e 229 768
e 229 491
e 229 967
e 229 433
e 230 917
e 230 856
e 230 880
e 231 552
e 231 925
e 231 581
e 232 511
e 232 410
e 232 292
e 232 569
e 232 705
e 234 561
e 236 749
e 236 528
e 236 896
e 237 327
e 237 314
e 237 858
e 237 276
e 237 536
e 238 645
e 238 680
e 238 400
e 238 810
e 238 907
e 238 315
e 239 867
e 239 712
e 239 245
e 239 749
e 239 884
e 239 425
e 239 257
e 240 389
e 240 477
e 240 834
e 240 819
e 241 731
e 241 475
e 241 338
e 241 798
e 241 940
e 241 873
e 242 653
e 242 619
e 242 417
e 243 740
e 243 510
e 243 342
e 243 966
e 243 274
e 244 907
e 244 295
e 244 753
e 244 986
e 244 254
e 245 909
e 245 862
e 245 765
e 245 480
e 245 798
e 248 945
e 248 405
e 248 604
e 250 319
e 250 584
e 250 776
e 250 330
e 250 441
e 250 731
e 250 656
e 251 457
e 251 330
e 251 819
e 252 893
e 252 327
e 252 270
e 253 694
e 253 966
e 253 534
e 254 640
e 254 294
e 254 635
e 254 904
e 254 721
e 255 916
e 257 597
e 257 262
e 257 947
e 258 698
e 258 790
e 259 436
e 259 263
e 259 795
e 260 627
e 260 430
e 260 495
e 261 771
e 261 672
e 261 539
e 262 322
e 262 422
e 262 600
e 262 764
e 262 820
e 263 877
e 263 375
e 263 911
e 263 761
e 264 715
e 264 942
e 264 576
e 264 390
e 267 994
e 267 794
e 267 761
e 267 926
e 268 666
e 268 488
e 268 682
e 269 616
e 269 393
e 269 788
e 270 774
e 270 547
e 270 765
e 270 749
e 270 345
e 270 310
e 271 862
e 271 928
e 271 534
e 273 943
e 274 434
e 274 646
e 274 551
e 274 403
e 275 648
e 276 568
e 276 606
e 276 516
e 277 281
e 277 768
e 277 744
e 277 727
e 277 573
e 278 429
e 278 772
e 278 356
e 280 686
e 280 891
e 280 751
e 280 557
e 280 536
e 281 607
e 281 490
e 281 846
e 281 618
e 281 637
e 282 725
e 282 591
e 282 697
e 282 425
e 284 952
e 284 607
e 285 955
e 285 952
e 285 811
e 286 856
e 286 628
e 286 674
e 286 430
e 286 881
e 286 398
e 289 934
e 289 402
e 289 764
e 290 730
e 290 452
e 290 766
e 290 490
e 291 718
e 291 825
e 291 705
e 292 864
e 293 964
e 293 849
e 293 916
e 293 374
e 293 695
e 293 405
e 294 757
e 294 654
e 294 774
e 294 333
e 294 783
e 295 754
e 295 751
e 295 944
e 295 377
e 296 627
e 296 313
e 296 640
e 296 301
e 297 517
e 297 447
e 297 407
e 297 995
e 297 584
e 298 543
e 298 799
e 298 496
e 299 955
e 299 752
e 300 312
e 300 802
e 301 501
e 301 717
e 301 431
e 301 943
e 302 321
e 302 668
e 302 711
e 303 673
e 303 339
e 303 491
e 303 768
e 304 937
e 304 605
e 304 475
e 306 979
e 306 477
e 306 828
e 307 322
e 307 708
e 308 811
e 308 495
e 308 604
e 308 727
e 309 391
e 309 953
e 309 448
e 309 921
e 310 450
e 310 940
e 311 313
e 311 900
e 311 795
e 311 631
e 311 442
e 311 365
e 312 974
e 312 571
e 312 643
e 312 879
e 313 605
e 313 703
e 313 984
e 313 788
e 313 482
e 313 873
e 314 710
e 314 776
e 315 418
e 315 836
e 315 843
e 315 950
e 315 955
e 315 980
e 315 626
e 317 759
e 317 818
e 317 457
e 317 855
e 319 721
e 319 989
e 319 795
e 319 343
e 319 645
e 319 863
e 319 780
e 320 871
e 320 446
e 320 737
e 321 921
e 321 456
e 321 821
e 321 747
e 322 470
e 322 837
e 322 414
e 324 470
e 324 464
e 324 607
e 324 850
e 325 730
e 325 985
e 325 909
e 325 678
e 325 508
e 327 571
e 327 445
e 329 562
e 329 976
e 330 646
e 330 591
e 330 913
e 331 807
e 331 760
e 331 442
e 333 408
e 333 647
e 335 544
e 335 620
e 335 785
e 335 914
e 336 933
e 336 672
e 337 374
e 337 612
e 338 852
e 338 754
e 338 788
e 338 944
e 338 629
e 339 663
e 339 547
e 339 940
e 339 399
e 339 934
e 340 721
e 340 733
e 340 488
e 340 656
e 340 618
e 340 871
e 342 599
e 342 455
e 342 496
e 343 548
e 343 622
e 343 597
e 345 714
e 345 846
e 347 856
e 347 574
e 347 668
e 349 526
e 349 947
e 349 502
e 349 978
e 350 995
e 350 495
e 351 843
e 352 681
e 352 765
e 352 695
e 353 404
e 353 723
e 353 794
e 353 757
e 353 710
e 356 976
e 356 502
e 356 934
e 357 590
e 357 517
e 357 432
e 358 537
e 358 487
e 359 391
e 359 629
e 359 870
e 361 782
e 361 678
e 364 826
e 364 441
e 364 509
e 365 621
e 365 733
e 366 752
e 366 389
e 367 980
e 367 383
e 368 455
e 368 905
e 368 453
e 368 810
e 370 753
e 370 589
e 371 398
e 371 905
e 371 876
e 371 422
e 371 473
e 371 873
e 372 849
e 372 512
e 372 835
e 372 526
e 374 900
e 374 740
e 374 519
e 374 958
e 375 859
e 375 849
e 376 499
e 376 851
e 376 538
e 377 994
e 377 435
e 380 697
e 380 661
e 381 580
e 381 697
e 381 668
e 381 464
e 381 770
e 381 999
e 382 663
e 382 431
e 383 800
e 384 755
e 384 774
e 385 950
e 385 416
e 385 557
e 388 445
e 388 884
e 388 640
e 388 571
e 390 966
e 390 722
e 391 972
e 391 543
e 391 445
e 392 971
e 392 551
e 392 446
e 392 799
e 392 496
e 393 878
e 393 709
e 394 790
e 394 909
e 395 985
e 395 472
e 396 839
e 396 988
e 396 723
e 396 518
e 397 709
e 397 596
e 397 841
e 397 763
e 397 513
e 397 557
e 398 469
e 398 912
e 399 986
e 399 932
e 400 439
e 400 409
e 400 738
e 401 477
e 402 849
e 402 681
e 402 794
e 402 513
e 403 672
e 403 621
e 404 731
e 404 625
e 404 574
e 405 839
e 406 491
e 406 744
e 406 575
e 406 429
e 407 556
e 407 564
e 407 999
e 407 419
e 407 886
e 407 631
e 408 720
e 408 908
e 409 524
e 409 551
e 410 830
e 410 794
e 410 660
e 413 789
e 413 580
e 413 553
e 413 459
e 414 607
e 414 494
e 414 799
e 414 554
e 415 671
e 415 869
e 415 932
e 415 800
e 416 765
e 416 573
e 416 526
e 416 738
e 417 449
e 417 490
e 417 862
e 418 442
e 418 855
e 419 593
e 419 704
e 420 474
e 421 718
e 421 874
e 421 836
e 422 686
e 423 825
e 423 859
e 427 730
e 427 433
e 427 577
e 429 471
e 429 582
e 429 499
e 429 948
e 430 582
e 430 513
e 431 569
e 432 674
e 432 925
e 432 541
e 433 545
e 434 863
e 434 759
e 434 722
e 435 602
e 436 944
e 436 548
e 436 912
e 436 758
e 436 995
e 438 958
e 438 937
e 438 877
e 439 632
e 439 757
e 440 752
e 440 814
e 440 829
e 440 712
e 441 561
e 441 605
e 441 588
e 441 968
e 441 781
e 446 776
e 446 518
e 446 721
e 446 949
e 447 973
e 447 953
e 448 584
e 448 754
e 448 677
e 449 723
e 449 926
e 450 757
e 450 591
e 451 575
e 451 530
e 452 930
e 452 778
e 452 588
e 452 638
e 453 947
e 454 496
e 454 939
e 454 654
e 455 798
e 455 682
e 455 606
e 456 728
e 456 760
e 458 927
e 458 528
e 458 641
e 461 842
e 461 800
e 461 986
e 462 645
e 462 759
e 463 830
e 463 868
e 463 649
e 463 960
e 464 694
e 464 477
e 465 491
e 465 654
e 465 880
e 467 545
e 467 769
e 467 809
e 467 647
e 469 971
e 470 793
e 470 518
e 471 885
e 471 952
e 472 793
e 472 553
e 472 628
e 472 733
e 474 671
e 474 784
e 474 988
e 475 799
e 475 506
e 475 980
e 477 625
e 477 931
e 477 987
e 478 719
e 478 643
e 478 680
e 480 631
e 480 940
e 480 528
e 482 936
e 482 733
e 483 610
e 483 988
e 483 766
e 484 870
e 487 864
e 487 653
e 488 904
e 488 643
e 488 556
e 488 844
e 489 788
e 489 730
e 489 576
e 490 766
e 490 835
e 490 900
e 491 576
e 491 663
e 491 908
e 492 701
e 492 600
e 492 605
e 494 663
e 495 866
e 496 635
e 496 567
e 496 637
e 496 545
e 499 685
e 499 731
e 501 619
e 501 884
e 504 907
e 504 941
e 504 728
e 506 544
e 506 871
e 506 673
e 506 582
e 506 969
e 508 574
e 509 998
e 509 618
e 510 998
e 511 781
e 511 931
e 511 942
e 511 921
e 512 935
e 512 548
e 512 604
e 513 953
e 516 946
e 516 620
e 516 999
e 517 593
e 517 715
e 518 783
e 518 715
e 519 568
e 523 632
e 523 719
e 523 891
e 523 589
e 523 710
e 523 874
e 524 537
e 524 811
e 524 804
e 526 948
e 526 847
e 526 683
e 527 570
e 527 561
e 527 755
e 528 994
e 528 973
e 529 959
e 529 546
e 530 576
e 530 540
e 530 869
e 530 977
e 530 989
e 534 769
e 534 554
e 536 885
e 536 920
e 536 829
e 536 818
e 536 648
e 537 621
e 539 720
e 539 551
e 540 878
e 541 698
e 541 653
e 543 978
e 543 709
e 543 776
e 543 834
e 543 561
e 544 632
e 545 713
e 545 951
e 545 979
e 546 660
e 546 619
e 547 590
e 549 673
e 549 833
e 549 981
e 549 938
e 551 622
e 552 720
e 556 881
e 557 701
e 559 635
e 559 829
e 560 575
e 561 862
e 563 793
e 563 922
e 564 867
e 564 971
e 564 785
e 564 709
e 567 808
e 567 662
e 567 718
e 568 842
e 568 866
e 569 723
e 570 590
e 570 870
e 571 858
e 571 802
e 573 730
e 573 925
e 573 679
e 573 905
e 574 964
e 574 938
e 575 719
e 575 810
e 576 892
e 576 831
e 577 712
e 577 762
e 577 936
e 580 684
e 580 889
e 580 607
e 581 989
e 581 907
e 582 853
e 582 998
e 584 864
e 584 872
e 584 870
e 587 640
e 587 744
e 587 861
e 587 804
e 588 841
e 588 787
e 589 984
e 589 701
e 589 703
e 589 916
e 593 951
e 596 945
e 596 641
e 597 913
e 597 713
e 597 697
e 597 847
e 599 893
e 599 693
e 600 700
e 602 927
e 602 811
e 602 754
e 602 964
e 604 906
e 605 994
e 605 721
e 606 964
e 607 906
e 607 769
e 608 940
e 610 720
e 610 896
e 611 892
e 611 908
e 611 933
e 612 910
e 613 626
e 613 927
e 613 783
e 616 976
e 616 709
e 616 977
e 618 953
e 618 844
e 618 636
e 619 740
e 619 737
e 619 839
e 621 711
e 625 790
e 626 647
e 626 889
e 627 900
e 627 936
e 628 780
e 631 836
e 631 843
e 631 927
e 632 681
e 632 747
e 633 920
e 633 847
e 635 969
e 636 837
e 637 988
e 637 700
e 640 671
e 641 977
e 642 793
e 648 895
e 648 969
e 649 999
e 653 795
e 654 672
e 656 908
e 656 866
e 661 843
e 661 896
e 661 680
e 661 841
e 661 758
e 661 914
e 661 845
e 663 850
e 664 678
e 671 691
e 671 697
e 672 886
e 672 742
e 673 791
e 674 753
e 674 833
e 674 804
e 674 938
e 674 906
e 679 948
e 680 879
e 680 820
e 680 976
e 681 760
e 682 922
e 682 714
e 684 843
e 684 859
e 685 722
e 685 733
e 685 869
e 686 988
e 686 695
e 691 844
e 691 958
e 693 893
e 693 845
e 693 748
e 695 905
e 698 783
e 700 911
e 700 809
e 701 831
e 703 873
e 704 824
e 705 805
e 707 856
e 708 800
e 709 986
e 710 904
e 711 859
e 713 983
e 717 939
e 717 910
e 719 867
e 719 722
e 720 910
e 720 839
e 721 930
e 722 826
e 723 910
e 723 848
e 724 932
e 724 772
e 724 871
e 725 831
e 725 951
e 727 997
e 727 850
e 730 777
e 731 847
e 731 917
e 737 948
e 738 763
e 738 867
e 740 988
e 742 824
e 744 994
e 748 849
e 748 911
e 749 841
e 751 914
e 752 851
e 757 960
e 757 809
e 758 895
e 758 862
e 760 784
e 761 979
e 762 960
e 763 809
e 763 798
e 763 878
e 764 930
e 764 801
e 771 792
e 771 811
e 772 985
e 772 793
e 775 964
e 775 938
e 775 782
e 776 949
e 776 994
e 776 785
e 777 863
e 778 889
e 780 959
e 780 861
e 780 932
e 780 802
e 781 972
e 782 785
e 782 946
e 784 801
e 787 819
e 789 892
e 790 991
e 790 800
e 791 958
e 792 844
e 793 847
e 794 997
e 798 872
e 800 946
e 800 918
e 801 933
e 802 810
e 802 843
e 804 892
e 805 814
e 805 807
e 807 837
e 807 939
e 808 828
e 808 891
e 808 858
e 811 823
e 811 978
e 814 916
e 814 909
e 818 828
e 820 958
e 820 972
e 823 846
e 824 984
e 831 931
e 831 842
e 833 950
e 833 931
e 835 988
e 836 960
e 839 927
e 839 994
e 841 913
e 841 872
e 842 985
e 845 900
e 845 928
e 846 906
e 847 858
e 847 937
e 848 914
e 851 870
e 852 938
e 852 974
e 853 868
e 855 955
e 856 866
e 856 999
e 859 887
e 859 926
e 861 984
e 864 925
e 866 988
e 869 917
e 871 964
e 871 943
e 876 900
e 877 885
e 877 947
e 884 966
e 886 971
e 887 936
e 891 978
e 892 912
e 896 949
e 896 920
e 905 969
e 905 910
e 918 968
e 922 967
e 927 952
e 931 977
e 931 980
e 935 941
e 949 969
e 951 980
e 953 968
e 959 987
e 971 972
e 972 983
e 973 991
e 974 981
e 974 997
e 977 991
e 984 997
e 988 991
